<instance format="XCSP3" type="CSP">
  <variables>
    <var id="x0"> 2 11 14 </var>
    <var id="x1"> 7 15 </var>
    <var id="x2"> 0..2 6 </var>
    <var id="x3"> 0 1 7 11 </var>
    <var id="x4"> 0 2 6 14 15 </var>
    <var id="x5"> 0 1 15 </var>
    <var id="x6"> 0 1 6 </var>
    <var id="x7"> 0 11 15 </var>
    <var id="x8"> 1 4 17 </var>
    <var id="x9"> 7 8 10 13 </var>
    <var id="x10"> 1 4 7 8 10 </var>
    <var id="x11"> 1 4 7 8 13 14 </var>
    <var id="x12"> 4 7 8 10 13 </var>
    <var id="x13"> 4 7 10 14 17 </var>
    <var id="x14"> 1 4 7 14 17 </var>
    <var id="x15"> 1 7 8 13 14 17 </var>
    <var id="x16"> 0 13 16 17 </var>
    <var id="x17"> 2 4 13 </var>
    <var id="x18"> 0 9 10 </var>
    <var id="x19"> 2 4 10 13 </var>
    <var id="x20"> 0 4 10 16 17 </var>
    <var id="x21"> 0 4 13 16 17 </var>
    <var id="x22"> 0 4 9 17 </var>
    <var id="x23"> 0 4 9 16 </var>
    <var id="x24"> 4 10 </var>
    <var id="x25"> 5 8 10 </var>
    <var id="x26"> 0 4..6 </var>
    <var id="x27"> 0 6 8..10 </var>
    <var id="x28"> 4 5 8 10 </var>
    <var id="x29"> 0 4 5 10 </var>
    <var id="x30"> 6 9 10 </var>
    <var id="x31"> 0 6 10 12 </var>
    <var id="x32"> 0 1 4 11 16 </var>
    <var id="x33"> 8 10 16 </var>
    <var id="x34"> 0 1 8 10 14 </var>
    <var id="x35"> 4 8 10 11 </var>
    <var id="x36"> 0 4 10 14 16 </var>
    <var id="x37"> 10 </var>
    <var id="x38"> 0 1 4 14 </var>
    <var id="x39"> 0 4 8 11 </var>
    <var id="x40"> 5 6 13 16 </var>
    <var id="x41"> 7 8 11 16 </var>
    <var id="x42"> 11 13 16 </var>
    <var id="x43"> 6 8 </var>
    <var id="x44"> 5 7 8 11 13 </var>
    <var id="x45"> 5 6 8 11 16 </var>
    <var id="x46"> 7 8 13 16 </var>
    <var id="x47"> 0 4 11 15 </var>
    <var id="x48"> 3 7 8 15 </var>
    <var id="x49"> 0 4 6 </var>
    <var id="x50"> 0 4 7 8 11 </var>
    <var id="x51"> 4 7 8 11 </var>
    <var id="x52"> 0 6 8 15 </var>
    <var id="x53"> 0 6 8 15 </var>
    <var id="x54"> 0 4 6 7 </var>
    <var id="x55"> 1 4 15 17 </var>
    <var id="x56"> 14 15 17 </var>
    <var id="x57"> 4 5 7 14 17 </var>
    <var id="x58"> 5 8 14 15 </var>
    <var id="x59"> 1 4 5 15 17 </var>
    <var id="x60"> 7 15 17 </var>
    <var id="x61"> 4 5 8 15 </var>
    <var id="x62"> 1 7 8 14 17 </var>
    <var id="x63"> 4 11 13 </var>
    <var id="x64"> 0 1 4 11 </var>
    <var id="x65"> 0 11 13 </var>
    <var id="x66"> 1 4 7 11 13 </var>
    <var id="x67"> 0 4 7 </var>
    <var id="x68"> 0 6 13 </var>
    <var id="x69"> 3 6 7 </var>
    <var id="x70"> 1 7 13 </var>
    <var id="x71"> 4 11 16 </var>
    <var as="x32" id="x72"/>
    <var id="x73"> 0 1 15 </var>
    <var id="x74"> 0 1 4 5 15..17 </var>
    <var id="x75"> 0 1 4 17 </var>
    <var id="x76"> 0 4 5 11 16 </var>
    <var id="x77"> 0 4 5 11 15 </var>
    <var id="x78"> 1 16 17 </var>
    <var id="x79"> 7 13 16 </var>
    <var id="x80"> 0 1 13 16 </var>
    <var id="x81"> 1 7 13 </var>
    <var id="x82"> 0 1 9 </var>
    <var id="x83"> 7 9 17 </var>
    <var id="x84"> 0 1 13 17 </var>
    <var id="x85"> 0 9 16 </var>
    <var id="x86"> 9 15 17 </var>
    <var id="x87"> 13..15 17 </var>
    <var id="x88"> 5 7 14 17 </var>
    <var id="x89"> 5 6 13..15 </var>
    <var id="x90"> 5 13 15 17 </var>
    <var id="x91"> 6 7 9 15 17 </var>
    <var id="x92"> 6 13 17 </var>
    <var id="x93"> 6 7 9 14 17 </var>
    <var id="x94"> 0 1 16 17 </var>
    <var id="x95"> 8 10 13 16 </var>
    <var id="x96"> 0 1 13 16 </var>
    <var id="x97"> 0 13 14 16 17 </var>
    <var id="x98"> 1 8 13 14 </var>
    <var id="x99"> 8 10 13 </var>
    <var id="x100"> 0 10 14 16 17 </var>
    <var id="x101"> 0 1 10 13 17 </var>
    <var id="x102"> 5 13 15 </var>
    <var id="x103"> 2 4..6 13 </var>
    <var id="x104"> 4 </var>
    <var id="x105"> 2 4 5 13 </var>
    <var id="x106"> 4 6 9 </var>
    <var id="x107"> 4..6 9 </var>
    <var id="x108"> 4 5 9 13 15 </var>
    <var id="x109"> 12 13 </var>
    <var id="x110"> 2 4 13 14 16 </var>
    <var id="x111"> 0 1 4 16 </var>
    <var id="x112"> 2 4 5 13 </var>
    <var id="x113"> 0 2 5 13 14 </var>
    <var id="x114"> 0 1 4 5 13 16 </var>
    <var id="x115"> 2 </var>
    <var id="x116"> 0 1 4 14 </var>
    <var id="x117"> 0 4 5 13 </var>
    <var id="x118"> 2 10 13 16 </var>
    <var id="x119"> 0 15..17 </var>
    <var id="x120"> 0 10 16 </var>
    <var id="x121"> 0 2 13 15 </var>
    <var id="x122"> 2 10 15 17 </var>
    <var id="x123"> 0 16 </var>
    <var id="x124"> 13 16 17 </var>
    <var id="x125"> 4 13 16 </var>
    <var id="x126"> 4 8 11 13 14 </var>
    <var id="x127"> 8 10 14 15 </var>
    <var id="x128"> 8 13..15 </var>
    <var id="x129"> 4 13 15 16 </var>
    <var id="x130"> 10 13 </var>
    <var id="x131"> 4 8 11 16 </var>
    <var id="x132"> 4 8 11 13 15 </var>
    <var id="x133"> 2 10 11 16 </var>
    <var id="x134"> 0 11 16 </var>
    <var id="x135"> 2 8 11 </var>
    <var id="x136"> 0 5 16 </var>
    <var id="x137"> 0 10 </var>
    <var id="x138"> 0 5 8 9 11 16 </var>
    <var id="x139"> 0 5 8 9 11 </var>
    <var id="x140"> 8 16 </var>
  </variables>
  <constraints>
    <group>
      <allDifferent> %... </allDifferent>
      <args> x0 x1 x2 x3 x4 x5 x6 x7 </args>
      <args> x8 x9 x10 x11 x12 x13 x14 x15 </args>
      <args> x16 x17 x18 x19 x20 x21 x22 x23 </args>
      <args> x24 x25 x26 x27 x28 x29 x30 x31 </args>
      <args> x32 x33 x34 x35 x36 x37 x38 x39 </args>
      <args> x40 x41 x42 x43 x44 x45 x46 </args>
      <args> x47 x48 x49 x50 x51 x52 x53 x54 </args>
      <args> x55 x56 x57 x58 x59 x60 x61 x62 </args>
      <args> x63 x64 x65 x66 x67 x68 x69 x70 </args>
      <args> x71 x72 x73 x74 x75 x76 x77 x78 </args>
      <args> x79 x80 x81 x82 x83 x84 x85 </args>
      <args> x86 x87 x88 x89 x90 x91 x92 x93 </args>
      <args> x94 x95 x96 x97 x98 x99 x100 x101 </args>
      <args> x102 x103 x104 x105 x106 x107 x108 x109 </args>
      <args> x110 x111 x112 x113 x114 x115 x116 x117 </args>
      <args> x118 x119 x120 x121 x122 x123 x124 </args>
      <args> x125 x126 x127 x128 x129 x130 x131 x132 </args>
      <args> x133 x134 x135 x136 x137 x138 x139 x140 </args>
      <args> x0 x24 x63 x71 x110 x118 x133 </args>
      <args> x8 x32 x47 x55 x64 x86 x94 x119 </args>
      <args> x1 x9 x25 x33 x48 x79 x95 x102 </args>
      <args> x2 x26 x40 x49 x80 x96 x103 x125 </args>
      <args> x3 x10 x41 x50 x72 x104 x111 x120 </args>
      <args> x16 x42 x56 x65 x87 x97 x134 </args>
      <args> x11 x17 x51 x66 x81 x98 x126 x135 </args>
      <args> x18 x27 x34 x43 x52 x73 x82 x127 </args>
      <args> x12 x19 x28 x35 x44 x99 x105 x112 </args>
      <args> x13 x20 x29 x36 x57 x67 x88 x100 </args>
      <args> x4 x53 x58 x68 x89 x113 x121 x128 </args>
      <args> x5 x21 x59 x74 x90 x114 x129 x136 </args>
      <args> x30 x37 x60 x69 x83 x91 x115 x122 </args>
      <args> x6 x31 x84 x92 x101 x130 x137 </args>
      <args> x14 x22 x38 x54 x75 x93 x106 x116 </args>
      <args> x23 x45 x76 x85 x107 x123 x131 x138 </args>
      <args> x7 x39 x61 x77 x108 x117 x132 x139 </args>
      <args> x15 x46 x62 x70 x78 x109 x124 x140 </args>
    </group>
  </constraints>
</instance>

